NAME : A-n53-k7.1010.tour
COMMENT : Cost = 0_1010
COMMENT : Found by LKH [Keld Helsgaun] Wed Sep 13 11:33:09 2017
TYPE : TOUR
DIMENSION : 59
TOUR_SECTION
1
38
3
37
51
44
24
20
16
33
17
10
54
28
36
9
47
52
56
5
29
18
42
12
25
53
35
40
59
26
22
14
15
6
4
55
32
21
7
34
57
48
8
13
49
43
46
23
58
2
31
45
50
30
11
27
41
19
39
-1
EOF
